NAME 
ROWS
 N  OBJ
 L  R0      
 E  R1      
 E  R2      
 E  R3      
 E  R4      
 E  R5      
 E  R6      
 E  R7      
 E  R8      
 E  R9      
 E  R10     
 E  R11     
 E  R12     
 E  R13     
 E  R14     
 E  R15     
 E  R16     
 E  R17     
 E  R18     
 E  R19     
 E  R20     
COLUMNS
    MARKER    'MARKER'                 'INTORG'
    I0(6)     OBJ       -196
    I0(6)     R0        -113
    I0(6)     R3        11
    I0(6)     R5        12
    I0(6)     R7        12
    I0(6)     R8        19
    I0(6)     R20       1
    I1(9)     OBJ       -33
    I1(9)     R0        -166
    I1(9)     R1        11
    I1(9)     R3        2
    I1(9)     R4        4
    I1(9)     R5        10
    I1(9)     R6        19
    I1(9)     R8        8
    I1(9)     R9        4
    I1(9)     R20       1
    I2(8)     OBJ       -1
    I2(8)     R0        15
    I2(8)     R1        11
    I2(8)     R2        13
    I2(8)     R3        3
    I2(8)     R4        6
    I2(8)     R5        14
    I2(8)     R8        5
    I2(8)     R20       1
    I3(6)     OBJ       38
    I3(6)     R0        -21
    I3(6)     R1        16
    I3(6)     R2        2
    I3(6)     R7        16
    I3(6)     R9        18
    I3(6)     R20       1
    I4(7)     OBJ       -9
    I4(7)     R0        11
    I4(7)     R1        14
    I4(7)     R2        9
    I4(7)     R4        4
    I4(7)     R6        11
    I4(7)     R10       13
    I4(7)     R20       1
    I5(7)     OBJ       -173
    I5(7)     R0        183
    I5(7)     R2        17
    I5(7)     R4        12
    I5(7)     R6        3
    I5(7)     R9        16
    I5(7)     R10       14
    I5(7)     R20       1
    I6(10)    OBJ       -131
    I6(10)    R0        -78
    I6(10)    R2        19
    I6(10)    R3        14
    I6(10)    R4        17
    I6(10)    R5        16
    I6(10)    R6        1
    I6(10)    R7        19
    I6(10)    R8        1
    I6(10)    R9        8
    I6(10)    R20       1
    I7(7)     OBJ       -37
    I7(7)     R0        -62
    I7(7)     R1        8
    I7(7)     R3        17
    I7(7)     R4        7
    I7(7)     R5        18
    I7(7)     R7        8
    I7(7)     R20       1
    I8(7)     OBJ       -190
    I8(7)     R0        145
    I8(7)     R2        19
    I8(7)     R3        18
    I8(7)     R6        15
    I8(7)     R8        15
    I8(7)     R10       4
    I8(7)     R20       1
    I9(9)     OBJ       -124
    I9(9)     R0        153
    I9(9)     R2        -1
    I9(9)     R3        -1
    I9(9)     R4        18
    I9(9)     R6        14
    I9(9)     R8        12
    I9(9)     R9        2
    I9(9)     R10       1
    I9(9)     R20       1
    MARKER    'MARKER'                 'INTEND'
    C10(13)   OBJ       -4
    C10(13)   R0        -7
    C10(13)   R2        2
    C10(13)   R3        4
    C10(13)   R4        12
    C10(13)   R8        18
    C10(13)   R9        1
    C10(13)   R10       2
    C10(13)   R11       15
    C10(13)   R14       11
    C10(13)   R15       18
    C10(13)   R16       8
    C10(13)   R17       10
    C10(13)   R19       6
    C11(10)   OBJ       -8
    C11(10)   R0        5
    C11(10)   R5        -1
    C11(10)   R6        13
    C11(10)   R7        3
    C11(10)   R10       6
    C11(10)   R12       7
    C11(10)   R14       2
    C11(10)   R15       12
    C11(10)   R16       19
    C11(10)   R19       8
    C12(9)    OBJ       4
    C12(9)    R0        -4
    C12(9)    R2        -1
    C12(9)    R6        11
    C12(9)    R10       13
    C12(9)    R11       10
    C12(9)    R13       17
    C12(9)    R14       5
    C12(9)    R17       6
    C12(9)    R18       18
    C13(10)   OBJ       -10
    C13(10)   R0        2
    C13(10)   R2        6
    C13(10)   R3        9
    C13(10)   R4        19
    C13(10)   R7        -1
    C13(10)   R10       6
    C13(10)   R13       8
    C13(10)   R16       18
    C13(10)   R17       19
    C13(10)   R18       13
    C14(10)   OBJ       -7
    C14(10)   R0        7
    C14(10)   R5        -1
    C14(10)   R7        13
    C14(10)   R8        19
    C14(10)   R9        12
    C14(10)   R11       7
    C14(10)   R12       15
    C14(10)   R13       5
    C14(10)   R17       14
    C14(10)   R19       11
    C15(12)   OBJ       -6
    C15(12)   R0        -4
    C15(12)   R2        15
    C15(12)   R3        1
    C15(12)   R5        1
    C15(12)   R6        4
    C15(12)   R7        12
    C15(12)   R8        15
    C15(12)   R9        5
    C15(12)   R11       16
    C15(12)   R13       6
    C15(12)   R16       17
    C15(12)   R17       9
    C16(10)   OBJ       -7
    C16(10)   R0        -10
    C16(10)   R1        1
    C16(10)   R3        6
    C16(10)   R5        8
    C16(10)   R6        14
    C16(10)   R8        11
    C16(10)   R13       6
    C16(10)   R14       13
    C16(10)   R15       7
    C16(10)   R18       15
    C17(10)   OBJ       3
    C17(10)   R0        3
    C17(10)   R1        -1
    C17(10)   R4        18
    C17(10)   R6        17
    C17(10)   R7        2
    C17(10)   R9        4
    C17(10)   R10       10
    C17(10)   R13       3
    C17(10)   R14       8
    C17(10)   R18       6
    C18(11)   OBJ       -10
    C18(11)   R0        2
    C18(11)   R2        5
    C18(11)   R3        15
    C18(11)   R5        12
    C18(11)   R6        9
    C18(11)   R9        3
    C18(11)   R12       3
    C18(11)   R13       1
    C18(11)   R15       3
    C18(11)   R16       14
    C18(11)   R18       6
    C19(9)    OBJ       3
    C19(9)    R0        -5
    C19(9)    R1        16
    C19(9)    R2        -1
    C19(9)    R4        2
    C19(9)    R5        3
    C19(9)    R9        9
    C19(9)    R12       14
    C19(9)    R13       19
    C19(9)    R14       17
    C20(1)    R1        1
    C21(1)    R2        1
    C22(1)    R3        1
    C23(1)    R4        1
    C24(1)    R5        1
    C25(1)    R6        1
    C26(1)    R7        1
    C27(1)    R8        1
    C28(1)    R9        1
    C29(1)    R10       1
    C30(1)    R11       1
    C31(1)    R12       1
    C32(1)    R13       1
    C33(1)    R14       1
    C34(1)    R15       1
    C35(1)    R16       1
    C36(1)    R17       1
    C37(1)    R18       1
    C38(1)    R19       1
    C39(1)    R20       1
RHS
    RHS1      R0        -8.1211348311611289e+01
    RHS1      R1        99
    RHS1      R2        72
    RHS1      R3        99
    RHS1      R4        56
    RHS1      R5        98
    RHS1      R6        98
    RHS1      R7        99
    RHS1      R8        73
    RHS1      R9        92
    RHS1      R10       76
    RHS1      R11       85
    RHS1      R12       85
    RHS1      R13       95
    RHS1      R14       79
    RHS1      R15       71
    RHS1      R16       90
    RHS1      R17       99
    RHS1      R18       86
    RHS1      R19       57
    RHS1      R20       3
BOUNDS
 UP BND1      I0(6)     2
 UP BND1      I1(9)     2
 UP BND1      I2(8)     2
 UP BND1      I3(6)     2
 UP BND1      I4(7)     2
 UP BND1      I5(7)     2
 UP BND1      I6(10)    2
 UP BND1      I7(7)     2
 UP BND1      I8(7)     2
 UP BND1      I9(9)     2
ENDATA
